outputs/case_88.model.txt
broker_company_shareholding_ratio = 5
document_signed_or_electronically_confirmed = True
contact_info_provided_to_insurer = True
applicant_phone = False
application_date = 0
insured_email = False
applicant_other_contact = True
capital_adjustment_completed_within_6_months = False
broker_changed = False
liability_insurance_purchased = True
violate_163_5th_paragraph_applied = False
license_issue_date = 20150102
product_suitability_confirmed = True
client_needs_understood = True
insurer_shareholding_ratio = 0
applicant_email = False
fee_standard_disclosed = True
shareholding_info_disclosed = True
share_transfer_ratio = 0
days_since_appointment_or_change = 0
broker_appointed = True
insured_phone = True
share_transfer_due_to_inheritance = False
insurance_policy_electronic = False
agent_type = 2
charge_fee = False
authority_exemption = False
business_type = 3
days_since_resignation = 0
capital_adjustment_completed = False
violate_165_1st_paragraph = True
bank_engage_agent = False
capital_adjustment_completed_date = 0
bank_engage_broker = True
guarantee_insurance_purchased = True
paid_in_capital = 30000000
violate_163_7th_paragraph = False
broker_charge_fee = False
insured_other_contact = False
broker_disclose_fee_standard = True
internal_operation_executed = True
license_permitted = True
broker_appointment_or_change_reported = True
management_rules_set_by_authority = True
related_insurance_type_ok = True
exercise_duty_of_care = True
spread_false_information = False
internal_operation_specified = True
broker_provide_written_analysis_report_and_disclose_fee = True
violation_financial_or_business_management_rules = False
broker_electronic_policy_contact_info_provided = True
authorize_others_to_operate = False
violate_business_management_rules = False
client_needs_and_suitability_report_included = True
broker_capital_contribution_cash_only = True
broker_understand_client_needs_and_suitability = True
bank_permitted_to_engage_agent_or_broker = True
broker_exercise_duty_of_care = True
damage_insurance_image = False
coerce_or_induce_contract = False
capital_contribution_cash_only = True
insurance_fee_receipt_included = True
employ_unqualified_recruiters = False
transfer_application_documents_without_consent = False
broker_prohibited_acts = True
unauthorized_suspension_or_termination_of_business = False
exercise_fidelity = True
contract_with_unregistered_insurer = False
broker_understand_client_and_provide_written_report_before_contract = True
criminal_conviction_for_fraud_or_forgery = False
documents_retained = True
fail_to_reappoint_broker_on_resignation = False
practice_certificate_held = True
violate_financial_management_rules = False
unauthorized_advertisement_content = False
other_violations_of_rules_or_laws = False
bank_permitted = True
capital_amount_and_implementation_defined = True
related_insurance_purchased = True
client_info_understood = True
broker_document_retention = True
fail_to_fill_out_recruitment_report_truthfully = False
broker_internal_operation_specification_and_execution = True
broker_capital_adjustment_due_to_share_transfer = True
broker_duty_of_care_and_fidelity = True
broker_capital_adjustment_completed = True
broker_exercise_fidelity = True
violate_related_provisions = False
induce_policy_cancellation_or_loan_payment = False
report_to_broker_association = True
other_authority_specified_documents_included = True
pay_commission_to_non_actual_recruiters = False
endorsement_application_included = True
sell_unapproved_foreign_policy_discount_products = False
fail_to_report_license_cancellation_within_deadline = False
broker_duty_of_care_and_fidelity_in_business = True
senior_consumer_protection_included = True
charge_illegal_fees_or_commissions = False
broker_provide_written_analysis_report = True
illegal_insurance_payments = False
false_or_incomplete_business_or_financial_reports = False
broker_required_documents_for_property_insurance = True
written_analysis_report_provided = True
guarantee_deposit_paid = True
fail_to_confirm_suitability_for_seniors = False
certificate_cancelled = True
resignation_reported_to_authority = True
broker_disclose_shareholding_info_before_contract = True
misappropriate_insurance_funds = False
permit_others_use_certificate = False
induce_policyholder_to_cancel_or_loan = False
broker_resignation_reported_and_certificate_cancelled = True
capital_amount_and_implementation_set_by_authority = True
contract_termination_application_included = True
management_rules_defined = True
agent_license_and_guarantee_ok = True
broker_required_documents_for_life_insurance = True
misleading_promotion_or_recruitment = False
false_report_on_license_application = False
contract_change_application_included = True
application_form_included = True
broker_resigned = True
conflict_of_interest_or_insurance_agent_registration_violation = False
fail_to_report_to_broker_association = False
penalty = False
penalty_imposed_for_violation = True
operate_outside_license_scope = False
conceal_important_contract_info = False
broker_minimum_paid_in_capital_ok = True